Route #1: 7 2 45 43 29 36 72 57
Route #2: 75 93
Route #3: 38 47 26 48 96 64 34
Route #4: 40 88 67 44
Route #5: 18 10 39
Route #6: 58 12 5
Route #7: 69 16 55 76
Route #8: 79 11 85 30
Route #9: 32 33 53 73 95 24
Route #10: 66 84 90 68
Route #11: 86 9 92
Route #12: 89 98 99 62 71
Route #13: 54 70 1
Route #14: 83 51 81
Route #15: 25 65 78 42 28
Route #16: 82 60 59
Route #17: 17 8
Route #18: 52 91 50
Route #19: 19 97 27
Route #20: 15 22 41 20
Route #21: 23 61 100
Route #22: 21 56 94 80
Route #23: 31 46 35
Route #24: 14 49 6 37 87
Route #25: 4 13 74
Route #26: 63 77 3
Cost 27591.0000
Time 16.0010